[2026-03-23T16:04:26.932Z] Pipeline "set_exp_3_exp_3_n028_c002_g005" → 2026_03_23_16_04_26_set_exp_3_exp_3_n028_c002_g005_max.sol
Set parameter WLSAccessID
Set parameter WLSSecret
Set parameter LicenseID to value 2792458
Set parameter LogFile to value "gurobi.log"
Using license file /root/gurobi.lic
Academic license 2792458 - for non-commercial use only - registered to an___@studenti.unipg.it

Gurobi Optimizer version 13.0.1 build v13.0.1rc0 (linux64 - "Ubuntu 24.04.4 LTS")
Copyright (c) 2026, Gurobi Optimization, LLC

Warning: Duplicate section found (read 'binary') - Is a variable name equal to an LP file format keyword?
Warning: Duplicate section found (read 'binary') - Is a variable name equal to an LP file format keyword?
Warning: Duplicate section found (read 'binary') - Is a variable name equal to an LP file format keyword?
Warning: Duplicate section found (read 'binary') - Is a variable name equal to an LP file format keyword?
Warning: Duplicate section found (read 'binary') - Is a variable name equal to an LP file format keyword?
Warning: Duplicate section found (read 'binary') - Is a variable name equal to an LP file format keyword?
Warning: Duplicate section found (read 'binary') - Is a variable name equal to an LP file format keyword?
Warning: Duplicate section found (read 'binary') - Is a variable name equal to an LP file format keyword?
Warning: Duplicate section found (read 'binary') - Is a variable name equal to an LP file format keyword?
Warning: Duplicate section found (read 'binary') - Is a variable name equal to an LP file format keyword?
Warning: Further warnings of this type will be omitted.
Read LP format model from file /root/bgw/data/uploads/2026_03_23_16_04_26_set_exp_3_exp_3_n028_c002_g005_max.lp
Reading time = 0.01 seconds
: 7554 rows, 593 columns, 22392 nonzeros

Using Gurobi shared library /opt/gurobi1301/linux64/lib/libgurobi.so.13.0.1

CPU model: AMD EPYC-Genoa Processor, instruction set [SSE2|AVX|AVX2|AVX512]
Thread count: 16 physical cores, 16 logical processors, using up to 16 threads

Academic license 2792458 - for non-commercial use only - registered to an___@studenti.unipg.it
Optimize a model with 7554 rows, 593 columns and 22392 nonzeros (Max)
Model fingerprint: 0x55e9b135
Model has 2 linear objective coefficients
Variable types: 30 continuous, 563 integer (563 binary)
Coefficient statistics:
  Matrix range     [1e+00, 3e+01]
  Objective range  [1e+00, 1e+00]
  Bounds range     [1e+00, 1e+00]
  RHS range        [1e+00, 3e+01]

Found heuristic solution: objective 2.0000000
Presolve removed 984 rows and 203 columns
Presolve time: 0.02s
Presolved: 6570 rows, 390 columns, 19860 nonzeros
Variable types: 0 continuous, 390 integer (384 binary)
Found heuristic solution: objective 3.0000000

Root relaxation: objective 8.000000e+00, 69 iterations, 0.01 seconds (0.01 work units)

    Nodes    |    Current Node    |     Objective Bounds      |     Work
 Expl Unexpl |  Obj  Depth IntInf | Incumbent    BestBd   Gap | It/Node Time

     0     0    8.00000    0   10    3.00000    8.00000   167%     -    0s
H    0     0                       6.0000000    8.00000  33.3%     -    0s
     0     0    8.00000    0   18    6.00000    8.00000  33.3%     -    0s
     0     0    8.00000    0   10    6.00000    8.00000  33.3%     -    0s
     0     0    8.00000    0   10    6.00000    8.00000  33.3%     -    0s
     0     0    8.00000    0   10    6.00000    8.00000  33.3%     -    0s
     0     0    8.00000    0    8    6.00000    8.00000  33.3%     -    0s
     0     0    7.00000    0   19    6.00000    7.00000  16.7%     -    0s
     0     0    7.00000    0   19    6.00000    7.00000  16.7%     -    0s
     0     0    7.00000    0   16    6.00000    7.00000  16.7%     -    0s
     0     0    7.00000    0   16    6.00000    7.00000  16.7%     -    0s
     0     0    7.00000    0   18    6.00000    7.00000  16.7%     -    0s
     0     0    7.00000    0   10    6.00000    7.00000  16.7%     -    0s
     0     0    7.00000    0   10    6.00000    7.00000  16.7%     -    0s
     0     0    7.00000    0    7    6.00000    7.00000  16.7%     -    0s

Cutting planes:
  Gomory: 1
  Lift-and-project: 3
  Cover: 3
  MIR: 3
  Zero half: 1
  Mod-K: 1

Explored 1 nodes (625 simplex iterations) in 0.29 seconds (0.23 work units)
Thread count was 16 (of 16 available processors)

Solution count 3: 6 3 2 

Optimal solution found (tolerance 1.00e-04)
Best objective 6.000000000000e+00, best bound 6.000000000000e+00, gap 0.0000%

Wrote result file '/root/bgw/data/results/2026_03_23_16_04_26_set_exp_3_exp_3_n028_c002_g005_max.sol'

